% seed = 2670150

mint = 40;
% maxt = 113;

nActs = 22;
dur = [0,2,10,9,6,6,7,7,2,10,4,7,2,4,5,9,5,5,4,5,4,0];

nSkills = 4;
sreq = [| 0,0,0,0,
	| 0,3,0,2,
	| 3,0,2,0,
	| 0,0,1,2,
	| 0,1,1,0,
	| 3,0,0,1,
	| 0,2,0,1,
	| 3,3,0,0,
	| 3,0,0,1,
	| 3,0,0,2,
	| 0,3,1,0,
	| 0,0,1,3,
	| 0,2,0,3,
	| 3,3,0,0,
	| 0,3,0,1,
	| 2,0,0,2,
	| 0,2,0,1,
	| 0,1,0,1,
	| 1,0,3,0,
	| 2,0,1,0,
	| 0,1,3,0,
	| 0,0,0,0, |];

nResources = 15;
mastery = [| true,true,false,false,
	| true,false,true,false,
	| false,true,false,true,
	| false,true,false,true,
	| false,true,false,true,
	| false,false,true,false,
	| true,false,false,false,
	| false,false,true,false,
	| false,true,false,true,
	| false,true,false,true,
	| false,false,false,true,
	| true,true,false,true,
	| true,true,true,false,
	| false,false,true,false,
	| true,false,true,false, |];

nPrecs = 37;
pred = [1,1,1,2,2,2,3,3,4,4,5,5,5,6,6,6,7,7,7,8,8,9,10,11,12,12,13,14,15,16,17,17,18,18,19,20,21];
succ = [2,3,4,11,7,8,5,7,21,7,16,6,14,10,12,13,9,14,15,20,16,13,11,19,17,15,15,20,20,18,19,21,19,21,22,22,22];

nUnrels = 101;
unpred = [2,2,2,2,2,2,2,3,3,4,4,4,4,4,4,4,4,4,4,5,5,5,6,6,6,6,6,6,7,7,7,7,7,7,7,7,7,8,8,8,8,8,8,8,8,9,9,9,9,9,9,9,9,9,10,10,10,10,10,10,10,10,10,11,11,11,11,11,11,11,11,11,12,12,12,12,13,13,13,13,13,13,14,14,14,14,14,14,15,15,15,15,15,16,16,17,17,18,19,19,20];
unsucc = [3,4,5,6,10,12,17,4,8,5,6,8,10,11,12,16,17,18,19,7,8,9,7,8,9,14,16,18,8,10,11,12,16,17,18,19,21,9,10,11,12,13,14,15,17,10,11,12,14,16,17,18,19,21,12,13,14,15,16,17,18,20,21,12,13,14,15,16,17,18,20,21,13,14,16,18,14,16,17,18,19,21,15,16,17,18,19,21,16,17,18,19,21,17,20,18,20,20,20,21,21];

USEFUL_RES = [{},
	{1,3,4,5,9,10,11,12,13},
	{1,2,6,7,8,12,13,14,15},
	{2,3,4,5,6,8,9,10,11,12,13,14,15},
	{1,2,3,4,5,6,8,9,10,12,13,14,15},
	{1,2,3,4,5,7,9,10,11,12,13,15},
	{1,3,4,5,9,10,11,12,13},
	{1,2,3,4,5,7,9,10,12,13,15},
	{1,2,3,4,5,7,9,10,11,12,13,15},
	{1,2,3,4,5,7,9,10,11,12,13,15},
	{1,2,3,4,5,6,8,9,10,12,13,14,15},
	{2,3,4,5,6,8,9,10,11,12,13,14,15},
	{1,3,4,5,9,10,11,12,13},
	{1,2,3,4,5,7,9,10,12,13,15},
	{1,3,4,5,9,10,11,12,13},
	{1,2,3,4,5,7,9,10,11,12,13,15},
	{1,3,4,5,9,10,11,12,13},
	{1,3,4,5,9,10,11,12,13},
	{1,2,6,7,8,12,13,14,15},
	{1,2,6,7,8,12,13,14,15},
	{1,2,3,4,5,6,8,9,10,12,13,14,15},
	{}];

POTENTIAL_ACT = [{2,3,5,6,7,8,9,10,11,13,14,15,16,17,18,19,20,21},
	{3,4,5,6,8,9,10,11,12,14,16,19,20,21},
	{2,4,5,6,7,8,9,10,11,12,13,14,15,16,17,18,21},
	{2,4,5,6,7,8,9,10,11,12,13,14,15,16,17,18,21},
	{2,4,5,6,7,8,9,10,11,12,13,14,15,16,17,18,21},
	{3,4,5,11,12,19,20,21},
	{3,6,8,9,10,14,16,19,20},
	{3,4,5,11,12,19,20,21},
	{2,4,5,6,7,8,9,10,11,12,13,14,15,16,17,18,21},
	{2,4,5,6,7,8,9,10,11,12,13,14,15,16,17,18,21},
	{2,4,6,7,9,10,12,13,15,16,17,18},
	{2,3,4,5,6,7,8,9,10,11,12,13,14,15,16,17,18,19,20,21},
	{2,3,4,5,6,7,8,9,10,11,12,13,14,15,16,17,18,19,20,21},
	{3,4,5,11,12,19,20,21},
	{3,4,5,6,8,9,10,11,12,14,16,19,20,21}];
